param L := 504;

set MODULI := M1 M2 M3 M4 M5 M6 M7 M8 M9 M10 ;

param d :=
  M1 7
  M2 2
  M3 8
  M4 7
  M5 6
  M6 7
  M7 2
  M8 7
  M9 1
  M10 10
;

param l :=
  M1 18
  M2 42
  M3 18
  M4 27
  M5 22
  M6 14
  M7 27
  M8 41
  M9 22
  M10 19
;
